

1

1

1

10

1

1

1

1

1

1

1

1

1

1

1

1

1

1

1

1

1

1

1

1

1

1

1

1

1

1

1

1

1

1

1

1

1

1

2

1

1

1

1

1

1

1

1

1

1

1

1

1

1

1

1

1

1

1

1

1

1

1

1

1

1

1

1

1

1

1

1

1

1

1

1

1

1

1

1

1

1

1

1

1

1

1

1

1

1

1

1

1

5

1

1

1

1

1

1

1

1

1

1

1

1

1

1

1

1

1

1

1

1

1

1

1

1

1

1

1

1

1

1

1

1

1

1

1

1

1

1

1

1

1

1

1

1

1

1

1

1

1

1

1

1

1

1

1

1

1

1

1

1

1

1

1

1

1

1

1

176

1

1

1

1

1

1

1

1

1

1

7

1

1

1

1

1

1

1

1

1

1

1

1

1

1

1

1

1

1

1

1

1

1

1

1

1

1

1

1

1

1

1

1

1

1

1

1

1

1

1

1

1

1

1

1

1

1

1

1

1

1

8

1

1

1

1

1

1

1

1

1

1

1

1

1

1

1

1

1

1

1

1

1

1

1

1

1

1

1

1

1

1

5

33

6

1

1

1

1

1

1

1

1

1

1

1

1

1

1

1

1

1

1

1

1

1

1

1

1

1

4

1

1

1

1

1

1

1

1

1

1

1

1

1

1

1

1

3

1

1

1

19

1

1

1

1

1

1

1

1

1

1

1

1

1

1

1

1

49

2

1

1

1

1

2

1

1

1

1

1

1

1

1

1

1

1

1

1

1

1

1

1

1

1

1

1

1

11

1

1

1

1

1

1

1

1

1

1

1

1

1

1

1

1

1

3

1

1

1

1

1

1

1

1

1

1

2

1

1

6

1

1

1

1

1

1

1

1

1

1

1

1

1

1

1

1

1

1

1

2

1

1

6

1

1

1

1

1

1

1

1

1

1

1

2

1

1

1

1

1

1

1

1

1

1

1

1

1

1

1

1

1

1

1

1

1

1

1

1

8

1

1

3

133

1

1

10

1

1

1

1

1

54

72

6

1

1

1

1

1

1

1

1

1

1

1

1

1

1

1

1

1

1

1

1

1

1

1

1

2

1

1

3

1

1

1

1

1

1

1

1

1

18

29

15

1

1

1

1

1

1

6

2

1

1

1

1

1

1

1

1

1

1

1

1

1

1

1

1

3

1

1

1

1

1

1

1

1

1

1

1

1

1

1

1

1

1

1

1

1

1

1

1

1

1

1

1

1

1

1

1

1

1

1

1

1

1

1

1

1

2

6

1

1

3

1

1

1

1

1

1

1

1

1

2

1

1

1

17

1

1

1

1

1

1

1

1

1

1

1

1

1

1

1

165

1

1

1

1

1

1

1

3

1

4

1

2

3

1

1

1

1

1

1

1

2

5

106

5

11

1

1

1

1

1

1

1

1

1

2

1

2

1

1

1

1

1

1

1

1

4

1

1

1

1

1

1

1

1

1

4

4

1

1

1

1

621

5737

188

4

1

1

1

1

1

1

1

1

1

1

1

1

4

1

1

1

1

1

1

4

1

5

12

1

1

4

7

7

1

1

1

1

1

1

4

1

2

1

8

1

1

1

1

1

1

1

1

1

1

1

1

1

1

1

1

1

1

1

1

8

3

1

2

1

1

1

4

1

4

1

1

2

564

1

1

1

8

1

1

1

1

1

1

1

1

1

3

1

1

1

1

1

1

1

2

1

1

1

1

2

1

1

1

1

2

1

1

1

6

8

1

1

2

1

3

5

2

1

1

1

1

1

1

1

1

1

1

1

1

4

1

1

2

1

1

1

1

1

1

1

3

7

1

1

1

1

1

1

1

1

1

1

1

1

9

1

11

13

1

1

1

1

2

1

5

1

1

1

2

2

1

1

51

1

1

1

1

1

4

6

3

27

1

1

1

2

7

4

1

1

1

14

1

1

15

2

1

5

2

1

2

1

1

1

1

2

1

1

1

1

1

1

2

1

1

1

1

1

2

6

9

1

1

1

1

2

6

1

1

1

43

16

1

1

1

4

9

1

1

1

7

1

1

1

1

1

1

1

1

1

2

1

3

1

309

2

3

1

1

7

10

1

1

1

1

1

2

4

1

1

1

48

21

1

1

1

2

1

1

3

5

2

1

1

3

1

1

1

1

1

1

4

6

4

1

1

1

1

2

1

1

1

2

1

1

3

1

2

1

1

1

1

1

1

1

1

1

1

1

1

7

1

1

1

8

1

1

1

3

1

6

2

1

1

1

1

1

1

1

1

1

1

1

22

1

1

1

5

3

1

3

1

1

1

1

1

1

1

3

1

1

3

1

1

1

1

1

22

1

1

1

41

1

1

1

1

1

2

1

1

1

1

9

3

6

1

3

4

1

1

1

1

1

1

1

3

1

1

1

1

1

1

1

1

1

1

1

1

1

1

1

1

1

1

1

1

1

1

1

1

1

1

1

3

1

7

3

11

20

1

2

1

1

1

1

1

1

1

1

1

1

1

1

1

1

1

1

1

1

1

2

1

1

1

1

6

45

1

3

1

1

1

1

6

1

4

25

18

24

11

1

4

2

1

1

7

1

1

1

1

1

1

1

1

1

1

1

1

1

1

1

1

1

1

25

1

1

3

1

1

1

1

1

13

13

1

12

2

16

19

1

1

1

1

1

1

1

1

1

1

1

1

1

12

1

1

1

1

1

1

1

1

1

1

1

1

1

1

1

1

1

1

2

9

6

1

4

35

4

17

10

1

1

1

1

6

1

1

1

1

1

1

1

1

1

1

1

1

1

1

1

1

1

1

1

1

1

2

1

1

1

1

1

14

5

3

11

5

1

1

1

1

4

1

1

1

1

1

1

1

1

1

1

1

1

1

1

1

1

1

1

1

1

1

1

1

1

1

1

1

1

1

2

1

1

1

83

21

15

1

1

3

2

1

2

1

1

1

1

1

1

1

1

1

1

3

8

1

1

1

1

1

1

1

1

1

1

2

1

1

1

1

1

1

1

1

4

3

3

4

1

1

6

1

1

1

1

1

1

1

2

1

1

1

1

1

1

1

4

1

1

1

1

1

1

1

1

1

1

1

1

1

1

1

1

1

52

2

1

2

1

10

1

1

1

1

6

1

1

1

6

1

1

2

1

1

3

1

1

1

7

5

1

1

1

1

1

4

1

1

1

1

1

1

1

1

1

1

3

74

55

1

1

1

1

1

1

1

1

1

1

1

1

1

1

2

6

1

1

1

1

1

1

1

1

1

1

1

1

1

1

1

1

1

1

1

1

1

1

2

1

1

1

1

1

1

1

1

1

1

1

1

1

1

4

2

1

2

1

1

1

1

1

1

1

1

1

1

1

1

1

1

1

1

1

4

1

1

1

1

1

1

1

1

1

1

1

1

1

1

1

2

1

1

2

3

1

1

1

1

1

1

4

1

1

1

1

1

1

1

1

1

1

1

1

1

1

1

1

1

1

1

1

1

1

1

1

1

1

1

1

8

1

1

12

1

1

1

1

2

1

1

1

1

1

1

1

1

1

1

1

1

1

1

1

1

1

1

1

1

1

1

1

1

1

1

1

1

1

1

1

1

1

1

2

1

1

1

1

14

1

1

1

1

1

1

1

1

1

